30
2	4	6	9	11	15	16	19	21	25	27	30	0
1	3	8	9	10	11	16	18	27	30	0
2	4	6	7	10	12	17	19	23	26	0
1	3	5	6	7	11	16	20	23	26	27	28	29	30	0
4	6	9	11	12	15	16	23	24	25	26	27	30	0
1	3	4	5	9	12	13	14	15	17	18	23	24	26	28	29	0
3	4	9	10	12	15	21	25	27	30	0
2	12	17	18	22	23	24	30	0
1	2	5	6	7	10	11	15	16	17	19	22	25	26	28	29	0
2	3	7	9	12	13	14	16	19	22	23	0
1	2	4	5	9	13	14	16	20	21	24	25	26	0
3	5	6	7	8	10	13	15	17	21	30	0
6	10	11	12	15	23	25	26	27	29	0
6	10	11	21	23	24	27	0
1	5	6	7	9	12	13	19	21	23	24	25	28	29	0
1	2	4	5	9	10	11	18	23	28	29	30	0
3	6	8	9	12	19	24	26	27	28	30	0
2	6	8	16	19	20	24	28	29	30	0
1	3	9	10	15	17	18	25	26	27	28	0
4	11	18	25	27	0
1	7	11	12	14	15	0
8	9	10	24	25	28	0
3	4	5	6	8	10	13	14	15	16	24	25	26	27	28	29	30	0
5	6	8	11	14	15	17	18	22	23	27	30	0
1	5	7	9	11	13	15	19	20	22	23	26	28	29	0
3	4	5	6	9	11	13	17	19	23	25	27	30	0
1	2	4	5	7	13	14	17	19	20	23	24	26	28	30	0
4	6	9	15	16	17	18	19	22	23	25	27	0
4	6	9	13	15	16	18	23	25	30	0
1	2	4	5	7	8	12	16	17	18	23	24	26	27	29	0


comments:
random graph
nodes 30
edges 172
rng seed 424 
